<number of tasks>
45

<cycle time>
62

<task times>
1 9
2 9
3 10
4 10
5 17
6 17
7 13
8 13
9 20
10 20
11 10
12 11
13 6
14 22
15 11
16 19
17 12
18 3
19 7
20 4
21 55
22 14
23 27
24 29
25 26
26 6
27 5
28 24
29 4
30 5
31 7
32 4
33 15
34 3
35 7
36 9
37 4
38 7
39 5
40 4
41 21
42 12
43 6
44 5
45 5

<precedence relations>
1,3
1,7
2,4
2,8
3,5
4,6
5,9
6,10
7,9
7,14
8,10
8,14
9,41
10,41
11,13
12,13
12,37
13,14
13,15
14,17
14,25
14,29
14,30
14,31
14,32
15,16
15,18
15,23
15,24
16,19
17,26
17,27
18,19
19,20
19,33
20,21
21,22
22,28
23,33
24,33
25,26
26,38
27,28
27,33
28,38
29,41
30,41
31,41
32,41
33,34
33,35
33,36
34,38
35,40
36,38
37,43
38,40
39,41
40,41
41,42
42,44
42,45

<setup times forward>
1,2:1
1,7:1
1,8:1
1,10:1
1,16:1
1,18:1
1,19:1
1,20:1
1,23:1
1,37:1
2,1:1
2,3:1
2,4:1
2,11:1
2,12:1
2,13:1
2,15:1
2,21:1
2,22:1
2,24:1
2,39:1
2,43:1
3,2:1
3,5:1
3,7:1
3,8:1
3,10:1
3,14:1
3,16:1
3,18:1
3,19:1
3,20:1
3,23:1
3,26:1
3,27:1
3,28:1
3,29:1
3,32:1
3,33:1
3,34:1
3,35:1
3,36:1
3,37:1
3,38:1
3,40:1
4,5:1
4,7:1
4,8:1
4,9:1
4,14:1
4,16:1
4,18:1
4,19:1
4,20:1
4,23:1
4,26:1
4,27:1
4,28:1
4,29:1
4,32:1
4,33:1
4,34:1
4,35:1
4,36:1
4,37:1
4,38:1
4,40:1
5,4:1
5,6:1
5,11:1
5,12:1
5,13:1
5,15:1
5,17:1
5,21:1
5,22:1
5,24:1
5,25:1
5,26:2
5,27:2
5,28:2
5,30:1
5,31:1
5,33:2
5,34:2
5,36:2
5,39:1
5,43:1
6,5:1
6,7:1
6,8:1
6,9:1
6,10:1
6,14:1
6,16:1
6,18:1
6,19:1
6,20:1
6,23:1
6,26:1
6,27:1
6,28:1
6,29:1
6,32:1
6,33:1
6,34:1
6,35:1
6,36:1
6,37:1
6,38:1
6,40:1
7,3:1
7,4:1
7,6:1
7,11:1
7,12:1
7,13:1
7,15:1
7,21:1
7,22:1
7,24:1
7,39:1
7,43:1
8,1:1
8,3:1
8,4:1
8,6:1
8,11:1
8,12:1
8,13:1
8,15:1
8,21:1
8,22:1
8,24:1
8,39:1
8,43:1
9,4:1
9,6:1
9,11:1
9,12:1
9,13:1
9,15:1
9,17:1
9,21:1
9,22:1
9,24:1
9,25:1
9,26:2
9,27:2
9,28:2
9,30:1
9,31:1
9,33:2
9,34:2
9,36:2
9,39:1
9,43:1
10,1:1
10,3:1
10,11:1
10,12:1
10,13:1
10,15:1
10,17:1
10,21:1
10,22:1
10,24:1
10,25:1
10,26:2
10,27:2
10,28:2
10,30:1
10,31:1
10,33:2
10,34:2
10,36:2
10,39:1
10,43:1
11,2:1
11,5:1
11,7:1
11,8:1
11,9:1
11,10:1
11,37:1
12,2:1
12,5:1
12,7:1
12,8:1
12,9:1
12,10:1
12,37:1
13,2:1
13,5:1
13,7:1
13,8:1
13,9:1
13,10:1
13,14:1
13,37:1
14,3:1
14,4:1
14,6:1
14,15:1
14,17:1
14,21:1
14,22:1
14,24:1
14,25:1
14,30:1
14,31:1
14,39:1
14,43:1
15,2:1
15,5:1
15,7:1
15,8:1
15,9:1
15,10:1
15,14:1
15,16:1
15,18:1
15,23:1
15,26:1
15,27:1
15,29:1
15,32:1
15,37:1
16,1:1
16,3:1
16,4:1
16,6:1
16,17:1
16,24:1
16,25:1
16,26:2
16,27:2
16,30:1
16,31:1
16,39:1
16,43:1
17,5:1
17,9:1
17,10:1
17,16:1
17,18:1
17,19:1
17,20:1
17,23:1
17,26:1
17,27:1
17,29:1
17,32:1
17,37:1
18,1:1
18,3:1
18,4:1
18,6:1
18,17:1
18,24:1
18,25:1
18,26:2
18,27:2
18,30:1
18,31:1
18,39:1
18,43:1
19,1:1
19,3:1
19,4:1
19,6:1
19,17:1
19,24:1
19,25:1
19,26:2
19,27:2
19,30:1
19,31:1
19,33:2
19,39:1
19,43:1
20,1:1
20,3:1
20,4:1
20,6:1
20,17:1
20,21:1
20,24:1
20,25:1
20,26:2
20,27:2
20,30:1
20,31:1
20,33:2
20,34:2
20,36:2
20,39:1
20,43:1
21,2:1
21,5:1
21,7:1
21,8:1
21,9:1
21,10:1
21,14:1
21,23:1
21,26:1
21,27:1
21,29:1
21,32:1
21,33:1
21,34:1
21,35:1
21,36:1
21,37:1
22,2:1
22,5:1
22,7:1
22,8:1
22,9:1
22,10:1
22,14:1
22,23:1
22,26:1
22,27:1
22,28:1
22,29:1
22,32:1
22,33:1
22,34:1
22,35:1
22,36:1
22,37:1
23,1:1
23,3:1
23,4:1
23,6:1
23,17:1
23,21:1
23,22:1
23,24:1
23,25:1
23,26:2
23,27:2
23,28:2
23,30:1
23,31:1
23,33:2
23,39:1
23,43:1
24,2:1
24,5:1
24,7:1
24,8:1
24,9:1
24,10:1
24,14:1
24,16:1
24,18:1
24,19:1
24,20:1
24,23:1
24,26:1
24,27:1
24,28:1
24,29:1
24,32:1
24,33:1
24,37:1
25,5:1
25,9:1
25,10:1
25,16:1
25,18:1
25,19:1
25,20:1
25,23:1
25,26:1
25,27:1
25,28:1
25,29:1
25,32:1
25,33:1
25,34:1
25,35:1
25,36:1
25,37:1
26,3:1
26,4:1
26,5:2
26,6:1
26,9:2
26,10:2
26,15:1
26,16:2
26,18:2
26,19:2
26,20:2
26,21:1
26,22:1
26,23:2
26,24:1
26,29:2
26,30:1
26,31:1
26,32:2
26,35:2
26,37:2
26,38:2
26,39:1
26,43:1
27,3:1
27,4:1
27,5:2
27,6:1
27,9:2
27,10:2
27,15:1
27,16:2
27,18:2
27,19:2
27,20:2
27,21:1
27,22:1
27,23:2
27,24:1
27,25:1
27,29:2
27,30:1
27,31:1
27,32:2
27,37:2
27,39:1
27,43:1
28,3:1
28,4:1
28,5:2
28,6:1
28,9:2
28,10:2
28,23:2
28,24:1
28,25:1
28,29:2
28,30:1
28,31:1
28,32:2
28,35:2
28,37:2
28,38:2
28,39:1
28,43:1
29,3:1
29,4:1
29,6:1
29,15:1
29,17:1
29,21:1
29,22:1
29,24:1
29,25:1
29,26:2
29,27:2
29,28:2
29,30:1
29,31:1
29,33:2
29,34:2
29,36:2
29,39:1
29,43:1
30,5:1
30,9:1
30,10:1
30,16:1
30,18:1
30,19:1
30,20:1
30,23:1
30,26:1
30,27:1
30,28:1
30,29:1
30,32:1
30,33:1
30,34:1
30,35:1
30,36:1
30,37:1
30,38:1
30,40:1
30,41:1
31,5:1
31,9:1
31,10:1
31,16:1
31,18:1
31,19:1
31,20:1
31,23:1
31,26:1
31,27:1
31,28:1
31,29:1
31,32:1
31,33:1
31,34:1
31,35:1
31,36:1
31,37:1
31,38:1
31,40:1
31,41:1
32,3:1
32,4:1
32,6:1
32,15:1
32,17:1
32,21:1
32,22:1
32,24:1
32,25:1
32,26:2
32,27:2
32,28:2
32,30:1
32,31:1
32,33:2
32,34:2
32,36:2
32,39:1
32,43:1
33,3:1
33,4:1
33,5:2
33,6:1
33,9:2
33,10:2
33,20:2
33,21:1
33,22:1
33,25:1
33,29:2
33,30:1
33,31:1
33,32:2
33,35:2
33,37:2
33,39:1
33,43:1
34,3:1
34,4:1
34,5:2
34,6:1
34,9:2
34,10:2
34,20:2
34,21:1
34,22:1
34,25:1
34,29:2
34,30:1
34,31:1
34,32:2
34,35:2
34,37:2
34,38:2
34,39:1
34,43:1
35,3:1
35,4:1
35,6:1
35,21:1
35,22:1
35,25:1
35,26:2
35,28:2
35,30:1
35,31:1
35,34:2
35,36:2
35,39:1
35,43:1
36,3:1
36,4:1
36,5:2
36,6:1
36,9:2
36,10:2
36,20:2
36,21:1
36,22:1
36,25:1
36,29:2
36,30:1
36,31:1
36,32:2
36,35:2
36,37:2
36,38:2
36,39:1
36,43:1
37,1:1
37,3:1
37,4:1
37,6:1
37,11:1
37,13:1
37,15:1
37,17:1
37,21:1
37,22:1
37,24:1
37,25:1
37,26:2
37,27:2
37,28:2
37,30:1
37,31:1
37,33:2
37,34:2
37,36:2
37,39:1
37,43:1
38,3:1
38,4:1
38,6:1
38,30:1
38,31:1
38,39:1
38,43:1
39,2:1
39,5:1
39,7:1
39,8:1
39,9:1
39,10:1
39,14:1
39,16:1
39,18:1
39,19:1
39,20:1
39,23:1
39,26:1
39,27:1
39,28:1
39,29:1
39,32:1
39,33:1
39,34:1
39,35:1
39,36:1
39,37:1
39,38:1
39,40:1
39,41:1
40,3:1
40,4:1
40,6:1
40,30:1
40,31:1
40,39:1
40,43:1
41,43:1
42,43:1
43,2:1
43,5:1
43,7:1
43,8:1
43,9:1
43,10:1
43,14:1
43,16:1
43,18:1
43,19:1
43,20:1
43,23:1
43,26:1
43,27:1
43,28:1
43,29:1
43,32:1
43,33:1
43,34:1
43,35:1
43,36:1
43,38:1
43,40:1
43,41:1
43,42:1
43,44:1
43,45:1
44,43:1
45,43:1

<setup times backward>
2,1:1
2,3:1
2,11:1
2,12:1
2,13:1
2,15:1
2,21:1
2,22:1
2,24:1
2,39:1
2,43:1
3,26:1
3,27:1
3,28:1
3,33:1
3,34:1
3,36:1
4,26:1
4,27:1
4,28:1
4,33:1
4,34:1
4,36:1
5,1:1
5,3:1
5,4:1
5,6:1
5,11:1
5,12:1
5,13:1
5,15:1
5,17:1
5,21:1
5,22:1
5,24:1
5,25:1
5,26:2
5,27:2
5,28:2
5,30:1
5,31:1
5,33:2
5,34:2
5,36:2
5,39:1
5,43:1
6,26:1
6,27:1
6,28:1
6,33:1
6,34:1
6,36:1
7,1:1
7,3:1
7,4:1
7,6:1
7,11:1
7,12:1
7,13:1
7,15:1
7,21:1
7,22:1
7,24:1
7,39:1
7,43:1
8,1:1
8,3:1
8,4:1
8,6:1
8,11:1
8,12:1
8,13:1
8,15:1
8,21:1
8,22:1
8,24:1
8,39:1
8,43:1
9,1:1
9,3:1
9,4:1
9,6:1
9,11:1
9,12:1
9,13:1
9,15:1
9,17:1
9,21:1
9,22:1
9,24:1
9,25:1
9,26:2
9,27:2
9,28:2
9,30:1
9,31:1
9,33:2
9,34:2
9,36:2
9,39:1
9,43:1
10,1:1
10,3:1
10,4:1
10,6:1
10,11:1
10,12:1
10,13:1
10,15:1
10,17:1
10,21:1
10,22:1
10,24:1
10,25:1
10,26:2
10,27:2
10,28:2
10,30:1
10,31:1
10,33:2
10,34:2
10,36:2
10,39:1
10,43:1
14,1:1
14,3:1
14,4:1
14,6:1
14,11:1
14,12:1
14,13:1
14,15:1
14,21:1
14,22:1
14,24:1
14,39:1
14,43:1
15,26:1
15,27:1
16,1:1
16,3:1
16,4:1
16,6:1
16,11:1
16,12:1
16,13:1
16,15:1
16,17:1
16,24:1
16,25:1
16,26:2
16,27:2
16,30:1
16,31:1
16,39:1
16,43:1
18,1:1
18,3:1
18,4:1
18,6:1
18,11:1
18,12:1
18,13:1
18,15:1
18,17:1
18,24:1
18,25:1
18,26:2
18,27:2
18,30:1
18,31:1
18,39:1
18,43:1
19,1:1
19,3:1
19,4:1
19,6:1
19,11:1
19,12:1
19,13:1
19,15:1
19,17:1
19,24:1
19,25:1
19,26:2
19,27:2
19,30:1
19,31:1
19,39:1
19,43:1
20,1:1
20,3:1
20,4:1
20,6:1
20,11:1
20,12:1
20,13:1
20,15:1
20,17:1
20,24:1
20,25:1
20,26:2
20,27:2
20,30:1
20,31:1
20,33:2
20,34:2
20,36:2
20,39:1
20,43:1
21,26:1
21,27:1
21,33:1
21,34:1
21,36:1
22,26:1
22,27:1
22,33:1
22,34:1
22,36:1
23,1:1
23,3:1
23,4:1
23,6:1
23,11:1
23,12:1
23,13:1
23,15:1
23,17:1
23,21:1
23,22:1
23,24:1
23,25:1
23,26:2
23,27:2
23,28:2
23,30:1
23,31:1
23,39:1
23,43:1
24,26:1
24,27:1
24,28:1
25,27:1
25,28:1
25,33:1
25,34:1
25,36:1
29,1:1
29,3:1
29,4:1
29,6:1
29,11:1
29,12:1
29,13:1
29,15:1
29,17:1
29,21:1
29,22:1
29,24:1
29,25:1
29,26:2
29,27:2
29,28:2
29,30:1
29,31:1
29,33:2
29,34:2
29,36:2
29,39:1
29,43:1
30,26:1
30,27:1
30,28:1
30,33:1
30,34:1
30,36:1
31,26:1
31,27:1
31,28:1
31,33:1
31,34:1
31,36:1
32,1:1
32,3:1
32,4:1
32,6:1
32,11:1
32,12:1
32,13:1
32,15:1
32,17:1
32,21:1
32,22:1
32,24:1
32,25:1
32,26:2
32,27:2
32,28:2
32,30:1
32,31:1
32,33:2
32,34:2
32,36:2
32,39:1
32,43:1
35,1:1
35,3:1
35,4:1
35,6:1
35,11:1
35,12:1
35,13:1
35,15:1
35,17:1
35,21:1
35,22:1
35,24:1
35,25:1
35,26:2
35,27:2
35,28:2
35,30:1
35,31:1
35,33:2
35,34:2
35,36:2
35,39:1
35,43:1
37,1:1
37,3:1
37,4:1
37,6:1
37,11:1
37,12:1
37,13:1
37,15:1
37,17:1
37,21:1
37,22:1
37,24:1
37,25:1
37,26:2
37,27:2
37,28:2
37,30:1
37,31:1
37,33:2
37,34:2
37,36:2
37,39:1
38,1:1
38,3:1
38,4:1
38,6:1
38,11:1
38,12:1
38,13:1
38,15:1
38,17:1
38,21:1
38,22:1
38,24:1
38,25:1
38,26:2
38,27:2
38,28:2
38,30:1
38,31:1
38,33:2
38,34:2
38,36:2
38,39:1
38,43:1
39,26:1
39,27:1
39,28:1
39,33:1
39,34:1
39,36:1
40,1:1
40,3:1
40,4:1
40,6:1
40,11:1
40,12:1
40,13:1
40,15:1
40,17:1
40,21:1
40,22:1
40,24:1
40,25:1
40,26:2
40,27:2
40,28:2
40,30:1
40,31:1
40,33:2
40,34:2
40,36:2
40,39:1
40,43:1
41,1:1
41,3:1
41,4:1
41,6:1
41,11:1
41,12:1
41,13:1
41,15:1
41,17:1
41,21:1
41,22:1
41,24:1
41,25:1
41,26:2
41,27:2
41,28:2
41,30:1
41,31:1
41,33:2
41,34:2
41,36:2
41,39:1
41,43:1
42,1:1
42,3:1
42,4:1
42,6:1
42,11:1
42,12:1
42,13:1
42,15:1
42,17:1
42,21:1
42,22:1
42,24:1
42,25:1
42,26:2
42,27:2
42,28:2
42,30:1
42,31:1
42,33:2
42,34:2
42,36:2
42,39:1
42,43:1
43,26:1
43,27:1
43,28:1
43,33:1
43,34:1
43,36:1
44,1:1
44,3:1
44,4:1
44,6:1
44,11:1
44,12:1
44,13:1
44,15:1
44,17:1
44,21:1
44,22:1
44,24:1
44,25:1
44,26:2
44,27:2
44,28:2
44,30:1
44,31:1
44,33:2
44,34:2
44,36:2
44,39:1
44,43:1
45,1:1
45,3:1
45,4:1
45,6:1
45,11:1
45,12:1
45,13:1
45,15:1
45,17:1
45,21:1
45,22:1
45,24:1
45,25:1
45,26:2
45,27:2
45,28:2
45,30:1
45,31:1
45,33:2
45,34:2
45,36:2
45,39:1
45,43:1

<end>

<optimal SALBP-1 value>
9


<rand seed>
467321153

